Route #1: 2 34 48 40 20 30 14 31 6 44
Route #2: 36 43 5
Route #3: 19 29 28 32 11
Route #4: 4 18 26 47 25 7
Route #5: 37 27 12 33 9 49 24 16
Route #6: 8 17 42 21 1 35
Route #7: 10 39 45 41 23
Route #8: 46 38 22 13 3 15
Cost 1352